(set-info :smt-lib-version 2.6)
(set-logic AUFBVFPDTNIRA)
(set-info :source |
Generated by: AdaCore
Generated on: 2020-03-06
Generator: SPARK
Application: Program verification for Ada
Target solver: Z3
|)
(set-info :license "https://creativecommons.org/licenses/by/4.0/")
(set-info :category "industrial")
(set-info :status unknown)
;;; generated by SMT-LIB2 driver
;;; SMT-LIB2 driver: bit-vectors, common part
;;; SMT-LIB2: integer arithmetic
(declare-sort string 0)

(declare-datatypes () ((tuple0 (Tuple0))))
(declare-sort us_private 0)

(declare-fun private__bool_eq (us_private us_private) Bool)

(declare-const us_null_ext__ us_private)

(declare-sort us_type_of_heap 0)

(declare-datatypes ()
((us_type_of_heap__ref
 (us_type_of_heap__refqtmk (us_type_of_heap__content us_type_of_heap)))))
(declare-sort us_image 0)

(declare-datatypes () ((int__ref (int__refqtmk (int__content Int)))))
(declare-datatypes () ((bool__ref (bool__refqtmk (bool__content Bool)))))
(declare-datatypes ()
((us_fixed__ref (us_fixed__refqtmk (us_fixed__content Int)))))
(declare-datatypes () ((real__ref (real__refqtmk (real__content Real)))))
(declare-datatypes ()
((us_private__ref (us_private__refqtmk (us_private__content us_private)))))
(define-fun int__ref___projection ((a int__ref)) Int (int__content a))

(define-fun us_fixed__ref___projection ((a us_fixed__ref)) Int (us_fixed__content
                                                               a))

(define-fun bool__ref___projection ((a bool__ref)) Bool (bool__content a))

(define-fun real__ref___projection ((a real__ref)) Real (real__content a))

(define-fun us_private__ref___projection ((a us_private__ref)) us_private 
  (us_private__content a))

(declare-sort natural 0)

(declare-fun naturalqtint (natural) Int)

;; natural'axiom
  (assert
  (forall ((i natural))
  (and (<= 0 (naturalqtint i)) (<= (naturalqtint i) 2147483647))))

(define-fun in_range ((x Int)) Bool (and (<= 0 x) (<= x 2147483647)))

(declare-fun attr__ATTRIBUTE_IMAGE (Int) us_image)

(declare-fun attr__ATTRIBUTE_VALUE__pre_check (us_image) Bool)

(declare-fun attr__ATTRIBUTE_VALUE (us_image) Int)

(declare-fun user_eq (natural natural) Bool)

(declare-const dummy natural)

(declare-datatypes ()
((natural__ref (natural__refqtmk (natural__content natural)))))
(define-fun natural__ref_natural__content__projection ((a natural__ref)) natural 
  (natural__content a))

(define-fun to_rep ((x natural)) Int (naturalqtint x))

(declare-fun of_rep (Int) natural)

;; inversion_axiom
  (assert
  (forall ((x natural)) (! (= (of_rep (to_rep x)) x) :pattern ((to_rep x)) )))

;; range_axiom
  (assert
  (forall ((x natural)) (! (in_range (to_rep x)) :pattern ((to_rep x)) )))

;; coerce_axiom
  (assert
  (forall ((x Int))
  (! (=> (in_range x) (= (to_rep (of_rep x)) x)) :pattern ((to_rep
                                                           (of_rep x))) )))

(declare-datatypes ()
((us_split_fields
 (us_split_fieldsqtmk
 (rec__generic_instance__root__f natural)(rec__ext__ us_private)))))
(define-fun us_split_fields_rec__generic_instance__root__f__projection ((a us_split_fields)) natural 
  (rec__generic_instance__root__f a))

(define-fun us_split_fields_rec__ext____projection ((a us_split_fields)) us_private 
  (rec__ext__ a))

(declare-datatypes ()
((us_split_fields__ref
 (us_split_fields__refqtmk (us_split_fields__content us_split_fields)))))
(define-fun us_split_fields__ref___split_fields__content__projection ((a us_split_fields__ref)) us_split_fields 
  (us_split_fields__content a))

(declare-datatypes ()
((us_rep (us_repqtmk (us_split_fields1 us_split_fields)(attr__tag Int)))))
(define-fun us_rep___split_fields__projection ((a us_rep)) us_split_fields 
  (us_split_fields1 a))

(define-fun us_rep_attr__tag__projection ((a us_rep)) Int (attr__tag a))

(define-fun bool_eq ((a us_rep)
  (b us_rep)) Bool (ite (= (to_rep
                           (rec__generic_instance__root__f
                           (us_split_fields1 a))) (to_rep
                                                  (rec__generic_instance__root__f
                                                  (us_split_fields1 b))))
                   true false))

(declare-fun us_dispatch_eq (us_rep us_rep) Bool)

(declare-const us_tag Int)

(declare-const value__size Int)

(declare-const object__size Int)

(declare-const alignment Int)

;; value__size_axiom
  (assert (<= 0 value__size))

;; object__size_axiom
  (assert (<= 0 object__size))

;; alignment_axiom
  (assert (<= 0 alignment))

(declare-const generic_instance__root__f__first__bit Int)

(declare-const generic_instance__root__f__last__bit Int)

(declare-const generic_instance__root__f__position Int)

;; generic_instance__root__f__first__bit_axiom
  (assert (<= 0 generic_instance__root__f__first__bit))

;; generic_instance__root__f__last__bit_axiom
  (assert
  (< generic_instance__root__f__first__bit generic_instance__root__f__last__bit))

;; generic_instance__root__f__position_axiom
  (assert (<= 0 generic_instance__root__f__position))

(declare-fun user_eq1 (us_rep us_rep) Bool)

(declare-const dummy1 us_rep)

(declare-datatypes () ((root__ref (root__refqtmk (root__content us_rep)))))
(define-fun root__ref_root__content__projection ((a root__ref)) us_rep 
  (root__content a))

(declare-fun f (us_rep) Bool)

(declare-fun f__function_guard (Bool us_rep) Bool)

(declare-fun is_valid (us_rep) Bool)

(declare-fun is_valid__function_guard (Bool us_rep) Bool)

(define-fun default_initial_assumption ((temp___expr_162 us_rep)
  (temp___skip_top_level_163 Bool)) Bool (= (attr__tag temp___expr_162) 
  us_tag))

;; f__post_axiom
  (assert (forall ((x us_rep)) (is_valid__function_guard (is_valid x) x)))

;; f__def_axiom
  (assert
  (forall ((x us_rep))
  (! (= (= (f x) true)
     (< 0 (to_rep (rec__generic_instance__root__f (us_split_fields1 x))))) :pattern (
  (f x)) )))

(declare-const x__attr__tag Int)

(declare-const attr__ATTRIBUTE_ADDRESS Int)

(define-fun dynamic_invariant ((temp___expr_39 Int) (temp___is_init_35 Bool)
  (temp___skip_constant_36 Bool) (temp___do_toplevel_37 Bool)
  (temp___do_typ_inv_38 Bool)) Bool (=>
                                    (or (= temp___is_init_35 true)
                                    (<= 0 2147483647)) (in_range
                                    temp___expr_39)))

;; is_valid__post_axiom
  (assert true)

;; is_valid__def_axiom
  (assert
  (forall ((x us_rep))
  (! (= (= (is_valid x) true)
     (< (to_rep (rec__generic_instance__root__f (us_split_fields1 x))) 2147483647)) :pattern (
  (is_valid x)) )))

(declare-const x__split_fields us_split_fields)

;; Assume
  (assert true)

(define-fun o () Int x__attr__tag)

(declare-const x__split_fields1 us_split_fields)

;; Ensures
  (assert true)

;; H
  (assert
  (forall ((x__split_fields2 us_split_fields)) (f__function_guard
  (f (us_repqtmk x__split_fields2 x__attr__tag))
  (us_repqtmk x__split_fields2 x__attr__tag))))

;; Assume
  (assert (= (f (us_repqtmk x__split_fields1 x__attr__tag)) true))

;; H
  (assert
  (forall ((x__split_fields2 us_split_fields)) (f__function_guard
  (f (us_repqtmk x__split_fields2 x__attr__tag))
  (us_repqtmk x__split_fields2 x__attr__tag))))

(assert
;; defqtvc
 ;; File "generic_instance.ads", line 25, characters 0-0
  (not (= (f (us_repqtmk x__split_fields1 x__attr__tag)) true)))
(check-sat)
